31691.1
45 35 144 63 55 53 18 47 15 124 48 145 112 102 113 25 130 43 79 117 10 7 62 37 32 38 69 33 22 72 12 132 108 14 99 91 30 82 36 96 149 58 80 73 128 28 4 39 71 139 54 31 87 3 34 138 94 129 116 141 121 105 89 101 9 75 127 61 49 120 66 56 106 41 98 135 100 83 6 81 2 70 59 90 137 27 52 8 85 126 74 11 20 122 140 118 51 125 44 111 103 92 123 17 88 110 131 148 24 107 119 5 21 68 60 143 77 147 42 133 46 97 76 109 142 104 1 114 86 29 93 84 16 65 23 67 78 40 134 64 115 13 95 26 136 50 146 57 19 0 
